2
5
11
12
17
18
19
20
22
26
36
37
38
39
40
41
43
47
52
56
58
59
60
64
66
69
72
75
76
77
79
80
85
88
89
91
94
97
98
99
100
102
110
111
113
115
119
122
124
130
131
132
134
140
146
155
161
163
164
170
173
177
178
180
182
183
187
198
204
206
209
217
224
232
236
238
240
244
252
255
264
268
270
291
292
293
304
309
311
312
316
318
334
335
336
341
355
356
357
358
359
362
366
367
368
376
380
385
388
389
392
396
399
403
415
